p cnf 96 157                
9 -74 0
10 -74 0
8 -73 0
10 -73 0
8 -72 0
9 -72 0
7 -71 0
10 -71 0
7 -70 0
9 -70 0
7 -69 0
8 -69 0
6 -68 0
10 -68 0
6 -67 0
9 -67 0
6 -66 0
8 -66 0
6 -65 0
7 -65 0
5 -64 0
10 -64 0
5 -63 0
9 -63 0
5 -62 0
8 -62 0
5 -61 0
7 -61 0
5 -60 0
6 -60 0
4 -59 0
10 -59 0
4 -58 0
9 -58 0
4 -57 0
8 -57 0
4 -56 0
7 -56 0
4 -55 0
6 -55 0
4 -54 0
5 -54 0
3 -53 0
10 -53 0
3 -52 0
9 -52 0
3 -51 0
8 -51 0
3 -50 0
7 -50 0
3 -49 0
6 -49 0
3 -48 0
5 -48 0
3 -47 0
4 -47 0
2 -46 0
10 -46 0
2 -45 0
9 -45 0
2 -44 0
8 -44 0
2 -43 0
7 -43 0
2 -42 0
6 -42 0
2 -41 0
5 -41 0
2 -40 0
4 -40 0
2 -39 0
3 -39 0
1 -38 0
10 -38 0
1 -37 0
9 -37 0
1 -36 0
8 -36 0
1 -35 0
7 -35 0
1 -34 0
6 -34 0
1 -33 0
5 -33 0
1 -32 0
4 -32 0
1 -31 0
3 -31 0
1 -30 0
2 -30 0
74 73 72 71 70 69 68 67 66 65 64 63 62 61 60 59 58 57 56 55 54 53 52 51 50 49 48 47 46 45 44 43 42 41 40 39 38 37 36 35 34 33 32 31 30 75 0
-75 -76 0
-2 -1 -11 0
11 -29 0
-1 12 0
-2 12 0
1 2 -12 0
-12 -3 -13 0
13 -29 0
-3 14 0
-12 14 0
3 12 -14 0
-14 -4 -15 0
15 -29 0
-4 16 0
-14 16 0
4 14 -16 0
-16 -5 -17 0
17 -29 0
-5 18 0
-16 18 0
5 16 -18 0
-18 -6 -19 0
19 -29 0
-6 20 0
-18 20 0
6 18 -20 0
-20 -7 -21 0
21 -29 0
-7 22 0
-20 22 0
7 20 -22 0
-22 -8 -23 0
23 -29 0
-8 24 0
-22 24 0
8 22 -24 0
-24 -9 -25 0
25 -29 0
-9 26 0
-24 26 0
9 24 -26 0
-26 -10 -27 0
27 -29 0
10 26 -28 0
28 -29 0
29 -76 0
-1 2 -77 0
77 -95 0
-2 3 -79 0
79 -95 0
-3 4 -81 0
81 -95 0
-4 5 -83 0
83 -95 0
-5 6 -85 0
85 -95 0
-6 7 -87 0
87 -95 0
-7 8 -89 0
89 -95 0
-8 9 -91 0
91 -95 0
-9 10 -93 0
93 -95 0
76 0
95 0
